c caso teste com 8 variáveis
p cnf 8 16
1 2 -3 0
-1 -2 4 0
2 3 -4 0
-2 -3 5 0
3 4 -5 0
-3 -4 6 0
4 5 -6 0
-4 -5 7 0
5 6 -7 0
-5 -6 8 0
6 7 -8 0
-6 -7 1 0
7 8 -1 0
-7 -8 2 0
-1 -2 -3 -4 -5 -6 -7 -8 0
1 2 3 4 5 6 7 8 0